NAME : 10_3_3_3_(22).dat
COMMENT : Henke, Speranza, Wäscher, 2015
TYPE : MCVRP
DIMENSION : 11
EDGE_WEIGHT_TYPE : DISTANCE_MATRIX
CAPACITY : 1000
VEHICLES : 3
PRODUCT TYPES : 3
COMPARTMENTS : 3
NODE_COORD_SECTION
1 50 50
2 96.39 71.32
3 20.98 9.72
4 59.99 7.09
5 17 79.58
6 7.03 11.11
7 1.15 30.9
8 64.3 39.68
9 87.99 12.34
10 55.76 11.58
11 27.99 26.37
DEMAND_SECTION
1 0 0 0
2 30 14 18
3 79 52 40
4 18 3 14
5 14 67 23
6 149 56 40
7 24 102 23
8 185 39 35
9 131 100 31
10 177 70 81
11 68 23 44
DEPOT_SECTION
1
EOF